Version identifier: 22.1.0.0 | 2022-03-09 | 1a383f8ce
CPXPARAM_Threads                                 1
CPXPARAM_MIP_Strategy_VariableSelect             3
CPXPARAM_TimeLimit                               599.99998029300002
1 of 1 MIP starts provided solutions.
MIP start 'm1' defined initial solution with objective 6.0000.
Tried aggregator 2 times.
MIP Presolve eliminated 53 rows and 1 columns.
MIP Presolve added 36 rows and 9 columns.
MIP Presolve modified 46 coefficients.
Aggregator did 9 substitutions.
Reduced MIP has 2695 rows, 6300 columns, and 123429 nonzeros.
Reduced MIP has 6300 binaries, 0 generals, 0 SOSs, and 0 indicators.
Presolve time = 0.16 sec. (219.63 ticks)
Probing time = 0.03 sec. (23.18 ticks)
Tried aggregator 1 time.
Detecting symmetries...
MIP Presolve modified 11 coefficients.
Reduced MIP has 2695 rows, 6300 columns, and 123690 nonzeros.
Reduced MIP has 6300 binaries, 0 generals, 0 SOSs, and 0 indicators.
Presolve time = 0.11 sec. (165.86 ticks)
Probing time = 0.02 sec. (23.19 ticks)
Clique table members: 896.
MIP emphasis: balance optimality and feasibility.
MIP search method: dynamic search.
Parallel mode: none, using 1 thread.
Root relaxation solution time = 5.81 sec. (6393.42 ticks)

        Nodes                                         Cuts/
   Node  Left     Objective  IInf  Best Integer    Best Bound    ItCnt     Gap

*     0+    0                            6.0000    45150.0000              --- 
      0     0      300.0000  1335        6.0000      300.0000    12509     --- 
*     0+    0                          167.0000      300.0000            79.64%
      0     0        cutoff            167.0000      300.0000    12509   79.64%
Detecting symmetries...
      0     2      300.0000   242      167.0000      300.0000    12509   79.64%
Elapsed time = 34.33 sec. (34541.84 ticks, tree = 0.01 MB, solutions = 2)
      1     3      300.0000   213      167.0000      300.0000    13389   79.64%
      2     4      300.0000   674      167.0000      300.0000    24117   79.64%
      3     5      300.0000   470      167.0000      300.0000    32355   79.64%
      4     6      300.0000   611      167.0000      300.0000    38852   79.64%
      5     7      300.0000   477      167.0000      300.0000    39114   79.64%
      6     8      300.0000  1020      167.0000      300.0000    57944   79.64%
      7     9      300.0000   983      167.0000      300.0000    76706   79.64%
      8    10      300.0000  1260      167.0000      300.0000    95753   79.64%
      9    11      300.0000   964      167.0000      300.0000    95928   79.64%
     10    12      300.0000  1104      167.0000      300.0000   113567   79.64%
Elapsed time = 77.13 sec. (78452.60 ticks, tree = 0.07 MB, solutions = 2)
     12    14      300.0000   953      167.0000      300.0000   130843   79.64%
     14    16      300.0000   931      167.0000      300.0000   131089   79.64%
     15    17      300.0000   892      167.0000      300.0000   133020   79.64%
     16    18      300.0000   994      167.0000      300.0000   143391   79.64%
     19    21      300.0000   895      167.0000      300.0000   143929   79.64%
     22    24      300.0000   906      167.0000      300.0000   145269   79.64%
     24    26      300.0000   922      167.0000      300.0000   146289   79.64%
     26    28      300.0000   893      167.0000      300.0000   147274   79.64%
     28    30      300.0000   880      167.0000      300.0000   148993   79.64%
     30    32      300.0000   886      167.0000      300.0000   150215   79.64%
Elapsed time = 97.82 sec. (100094.77 ticks, tree = 0.16 MB, solutions = 2)
     33    35      300.0000   875      167.0000      300.0000   150511   79.64%
     36    38      300.0000   875      167.0000      300.0000   151796   79.64%
     39    41      300.0000   860      167.0000      300.0000   153329   79.64%
     40    42      300.0000   854      167.0000      300.0000   155199   79.64%
     43    45      300.0000   861      167.0000      300.0000   156336   79.64%
     46    48      300.0000   836      167.0000      300.0000   158102   79.64%
     48    50      300.0000   833      167.0000      300.0000   161004   79.64%
     50    52      300.0000   830      167.0000      300.0000   161822   79.64%
     52    54      300.0000   848      167.0000      300.0000   164889   79.64%
     54    56      300.0000   812      167.0000      300.0000   166609   79.64%
Elapsed time = 144.82 sec. (146072.18 ticks, tree = 0.22 MB, solutions = 2)
     57    59      300.0000   759      167.0000      300.0000   169395   79.64%
     60    62      300.0000   733      167.0000      300.0000   170210   79.64%
     62    64      300.0000   693      167.0000      300.0000   172232   79.64%
     65    67      300.0000   688      167.0000      300.0000   175398   79.64%
     67    69      300.0000   658      167.0000      300.0000   178605   79.64%
     70    72      300.0000   629      167.0000      300.0000   180528   79.64%
     72    74      300.0000   553      167.0000      300.0000   190526   79.64%
     74    76      300.0000   521      167.0000      300.0000   194663   79.64%
     77    79      300.0000   502      167.0000      300.0000   203905   79.64%
     79    81      300.0000   860      167.0000      300.0000   211705   79.64%
Elapsed time = 159.98 sec. (160880.97 ticks, tree = 0.29 MB, solutions = 2)
     80    82      300.0000   972      167.0000      300.0000   218442   79.64%
     83    85      300.0000   495      167.0000      300.0000   219729   79.64%
     85    86      300.0000   493      167.0000      300.0000   226023   79.64%
     87    88      300.0000   472      167.0000      300.0000   231977   79.64%
     89    89      300.0000   563      167.0000      300.0000   239994   79.64%
     91    91      300.0000   500      167.0000      300.0000   245727   79.64%
     93    92      299.9403   618      167.0000      300.0000   260723   79.64%
     96    95      300.0000   471      167.0000      300.0000   262332   79.64%
     98    97      300.0000   465      167.0000      300.0000   267278   79.64%
    100    99      300.0000   437      167.0000      300.0000   274578   79.64%
Elapsed time = 174.71 sec. (174702.25 ticks, tree = 0.34 MB, solutions = 2)
    101   100      300.0000   489      167.0000      300.0000   276935   79.64%
    103   102      300.0000   490      167.0000      300.0000   280491   79.64%
    107   106      300.0000   440      167.0000      300.0000   281862   79.64%
    109   107      299.8005   568      167.0000      300.0000   293080   79.64%
    111   109      300.0000   459      167.0000      300.0000   298813   79.64%
    112   110      300.0000   361      167.0000      300.0000   300607   79.64%
    114   111      300.0000   364      167.0000      300.0000   306334   79.64%
    116   113      299.8933   608      167.0000      300.0000   317101   79.64%
    119   116      300.0000   391      167.0000      300.0000   324218   79.64%
    122   119      300.0000   368      167.0000      300.0000   329722   79.64%
Elapsed time = 187.74 sec. (186688.21 ticks, tree = 0.40 MB, solutions = 2)
    124   121      300.0000   312      167.0000      300.0000   335675   79.64%
    127   123      300.0000   315      167.0000      300.0000   343316   79.64%
    130   125      299.0000   543      167.0000      300.0000   359475   79.64%
    134   129      300.0000   395      167.0000      300.0000   368259   79.64%
    137   132      300.0000   287      167.0000      300.0000   372880   79.64%
    140   135      300.0000   322      167.0000      300.0000   377250   79.64%
    142   137      299.8276   516      167.0000      300.0000   383433   79.64%
    145   140      300.0000   314      167.0000      300.0000   388479   79.64%
    149   143      295.0000   512      167.0000      300.0000   395820   79.64%
    152   145      299.0000   524      167.0000      300.0000   399825   79.64%
Elapsed time = 204.41 sec. (201290.46 ticks, tree = 0.47 MB, solutions = 2)
    155   146      297.7222   461      167.0000      300.0000   405278   79.64%
    159   148      298.0000   501      167.0000      300.0000   412163   79.64%
    160   149      299.0000   534      167.0000      300.0000   412166   79.64%
    163   150      298.0000   569      167.0000      300.0000   418082   79.64%
    167   152      298.6667   516      167.0000      300.0000   424092   79.64%
    170   154      299.0000   528      167.0000      300.0000   427702   79.64%
    173   156      298.3333   462      167.0000      300.0000   433126   79.64%
    177   159      298.0000   456      167.0000      300.0000   436017   79.64%
    181   162      299.0000   424      167.0000      300.0000   439926   79.64%
    184   165      299.0000   421      167.0000      300.0000   442655   79.64%
Elapsed time = 219.70 sec. (215443.49 ticks, tree = 0.53 MB, solutions = 2)
    190   169      298.0000   381      167.0000      300.0000   444580   79.64%
    194   173      298.0000   374      167.0000      300.0000   446846   79.64%
    199   176      298.0000   323      167.0000      300.0000   449567   79.64%
    204   179      298.0000   276      167.0000      300.0000   452615   79.64%
    208   183      298.0000   269      167.0000      300.0000   454839   79.64%
    212   185      298.0000   236      167.0000      300.0000   459430   79.64%
    216   187      298.0000   232      167.0000      300.0000   463873   79.64%
    221   188    infeasible            167.0000      300.0000   471161   79.64%
    225   188    infeasible            167.0000      300.0000   478100   79.64%
    227   190      298.0000   204      167.0000      300.0000   484661   79.64%
Elapsed time = 231.54 sec. (226255.40 ticks, tree = 0.60 MB, solutions = 2)
    232   193      298.0000   185      167.0000      300.0000   487372   79.64%
    236   193      298.0000   182      167.0000      300.0000   493022   79.64%
    241   192    infeasible            167.0000      300.0000   500710   79.64%
    246   193      298.0000   166      167.0000      300.0000   505262   79.64%
    252   193      298.0000   164      167.0000      300.0000   510354   79.64%
    257   196      298.0000   170      167.0000      300.0000   514223   79.64%
    260   197      298.0000   164      167.0000      300.0000   518209   79.64%
    264   197      298.0000   159      167.0000      300.0000   523739   79.64%
    268   197    infeasible            167.0000      300.0000   531784   79.64%
    280   203    infeasible            167.0000      300.0000   550285   79.64%
Elapsed time = 246.76 sec. (240031.60 ticks, tree = 0.64 MB, solutions = 2)
    295   216      298.0000   141      167.0000      300.0000   566037   79.64%
    314   217      298.0000   152      167.0000      300.0000   586526   79.64%
    329   222    infeasible            167.0000      300.0000   609217   79.64%
    345   229    infeasible            167.0000      300.0000   636771   79.64%
    358   233      298.0000   160      167.0000      300.0000   665050   79.64%
    370   236      298.0000   168      167.0000      300.0000   696550   79.64%
    385   237      300.0000   271      167.0000      300.0000   721167   79.64%
    393   245      300.0000   207      167.0000      300.0000   734707   79.64%
    400   252      300.0000   314      167.0000      300.0000   748916   79.64%
    411   263      300.0000   166      167.0000      300.0000   755843   79.64%
Elapsed time = 290.23 sec. (279584.72 ticks, tree = 0.81 MB, solutions = 2)
    419   271      300.0000   206      167.0000      300.0000   769636   79.64%
    426   278      300.0000   169      167.0000      300.0000   789372   79.64%
    433   285      300.0000   365      167.0000      300.0000   806468   79.64%
    441   293      300.0000   183      167.0000      300.0000   822215   79.64%
    445   297      300.0000   227      167.0000      300.0000   839929   79.64%
    455   307      300.0000   330      167.0000      300.0000   852809   79.64%
    463   315      300.0000   204      167.0000      300.0000   872100   79.64%
    475   327      300.0000   143      167.0000      300.0000   884178   79.64%
    481   333      300.0000   132      167.0000      300.0000   895412   79.64%
    486   338      300.0000   153      167.0000      300.0000   905363   79.64%
Elapsed time = 333.45 sec. (321465.78 ticks, tree = 1.01 MB, solutions = 2)
    489   341      300.0000   206      167.0000      300.0000   916188   79.64%
    494   346      300.0000   141      167.0000      300.0000   929205   79.64%
*   495+  345                          223.0000      300.0000            34.53%
*   495+  345                          225.0000      300.0000            33.33%
*   495+  344                          285.0000      300.0000             5.26%
*   495+  344                          290.0000      300.0000             3.45%
    495   346      300.0000   124      290.0000      300.0000   930576    3.45%
*   496+  345                          294.0000      300.0000             2.04%
*   496+  338                          296.0000      300.0000             1.35%
*   497+  333                          297.0000      300.0000             1.01%
*   498+  258                          298.0000      300.0000             0.67%
    499   261      300.0000   172      298.0000      300.0000   935757    0.67%
    506   268      300.0000   414      298.0000      300.0000   945542    0.67%
    516   278      300.0000   237      298.0000      300.0000   958761    0.67%
    524   286      300.0000   409      298.0000      300.0000   979924    0.67%
    539   291      299.0000   439      298.0000      300.0000   993415    0.67%
    560   302      299.0000   251      298.0000      300.0000  1000559    0.67%
    590   310      299.0000   206      298.0000      300.0000  1005573    0.67%
Elapsed time = 381.44 sec. (366411.43 ticks, tree = 0.93 MB, solutions = 10)
    606   316      300.0000   234      298.0000      300.0000  1016818    0.67%
    616   326      300.0000   234      298.0000      300.0000  1030574    0.67%
    625   335      300.0000   306      298.0000      300.0000  1053535    0.67%
    631   341      300.0000   459      298.0000      300.0000  1069178    0.67%
    642   347      299.0000   392      298.0000      300.0000  1078759    0.67%
    653   358      299.0000   242      298.0000      300.0000  1095332    0.67%
    660   357    infeasible            298.0000      300.0000  1122419    0.67%
    667   364      300.0000   457      298.0000      300.0000  1139969    0.67%
    676   373      300.0000   292      298.0000      300.0000  1152311    0.67%
    680   377      300.0000   291      298.0000      300.0000  1158701    0.67%
Elapsed time = 430.40 sec. (412541.92 ticks, tree = 1.11 MB, solutions = 10)
    689   386      300.0000   336      298.0000      300.0000  1173945    0.67%
    698   389    infeasible            298.0000      300.0000  1199189    0.67%
    704   394      299.0000   313      298.0000      300.0000  1211407    0.67%
    715   397      300.0000   189      298.0000      300.0000  1234044    0.67%
    725   407      300.0000   152      298.0000      300.0000  1245442    0.67%
    733   415      300.0000   115      298.0000      300.0000  1255558    0.67%
    739   421      300.0000    92      298.0000      300.0000  1267888    0.67%
*   743     1      integral     0      300.0000      300.0000  1269381    0.00%

Root node processing (before b&c):
  Real time             =   34.24 sec. (34445.81 ticks)
Sequential b&c:
  Real time             =  427.11 sec. (406954.41 ticks)
                          ------------
Total (root+branch&cut) =  461.35 sec. (441400.23 ticks)
Primal:	300
Dual:	300
Status:	Optimal
Time:	461.36
Sequence:
	1
	15
	0
	13
	19
	6
	16
	15
	11
	4
	6
	0
	11
	14
	8
	18
	1
	2
	18
	15
	3
	5
	8
	7
	1
	0
	5
	2
	11
	6
	0
	14
	11
	8
	5
	16
	3
	5
	8
	14
	16
	19
	6
	2
	14
	17
	4
	5
	2
	1
	8
	18
	7
	1
	12
	0
	7
	11
	6
	12
	16
	3
	9
	6
	16
	11
	12
	18
	14
	17
	18
	15
	13
	1
	0
	9
	10
	3
	6
	8
	7
	3
	12
	6
	16
	19
	13
	12
	14
	19
	18
	16
	15
	1
	18
	18
	16
	1
	15
	18
	13
	3
	12
	18
	16
	11
	6
	0
	7
	1
	8
	5
	2
	19
	14
	8
	14
	17
	7
	6
	0
	1
	2
	9
	6
	17
	5
	2
	18
	1
	8
	5
	2
	19
	6
	16
	5
	19
	2
	14
	9
	17
	6
	13
	15
	3
	0
	6
	7
	11
	12
	0
	14
	19
	9
	10
	4
	1
	0
	7
	8
	1
	5
	2
	9
	3
	12
	7
	12
	3
	9
	2
	6
	15
	11
	4
	2
	6
	19
	10
	9
	0
	1
	13
	12
	18
	17
	7
	14
	8
	19
	10
	4
	14
	17
	7
	12
	13
	19
	10
	4
	12
	3
	7
	12
	4
	3
	10
	4
	15
	3
	18
	10
	4
	12
	3
	7
	12
	18
	1
	16
	18
	15
	11
	6
	2
	4
	19
	10
	9
	8
	19
	6
	2
	14
	17
	9
	14
	16
	19
	12
	13
	14
	19
	8
	10
	18
	1
	4
	0
	14
	11
	15
	18
	0
	1
	7
	12
	4
	17
	14
	18
	15
	11
	2
	6
	18
	17
	14
	8
	14
	18
	11
	15
	0
	6
	3
	13
	15
	8
	3
	6
	7
	12
	17
	7
	6
	13
	17
	12
	7
	4
	3
	15
	10
	9
	19
	13
	12
	10
